50 1941
727 457 931 850 193 899 674 1047 315 453 1033 972 156 605 227 831 1052 394 433 646 451 522 1034 166 835 398 203 301 948 554 908 599 420 217 583 781 880 286 1053 925 116 533 1055 354 195 399 278 603 516 500 
627 357 831 750 93 799 574 947 215 353 933 872 56 505 127 731 952 294 333 546 351 422 934 66 735 298 103 201 848 454 808 499 320 117 483 681 780 186 953 825 16 433 955 254 95 299 178 503 416 400 
